solution status: optimal solution found
objective value:                        50.0301565326
C35736                                              1 	(obj:0.3908010869)
C35748                                              1 	(obj:0.7044858447)
C35756                                              1 	(obj:0.8767331919)
C35768                                              1 	(obj:0.3655742988)
C35792                                              1 	(obj:0.5263362308)
C35800                                              1 	(obj:0.8910230789)
C35812                                              1 	(obj:0.2664068282)
C35824                                              1 	(obj:0.4515576718)
C35848                                              1 	(obj:0.4863685455)
C35852                                              1 	(obj:0.3605155221)
C35872                                              1 	(obj:0.5604727703)
C35880                                              1 	(obj:0.7875049828)
C35900                                              1 	(obj:0.8717870623)
C35916                                              1 	(obj:0.4126633111)
C35928                                              1 	(obj:0.2833440124)
C35948                                              1 	(obj:0.7677772054)
C35956                                              1 	(obj:0.7034077271)
C35960                                              1 	(obj:0.2741148404)
C35980                                              1 	(obj:0.4433569422)
C35992                                              1 	(obj:0.2472029471)
C36008                                              1 	(obj:0.5236354067)
C36024                                              1 	(obj:0.2085865235)
C36044                                              1 	(obj:0.0708462663)
C36048                                              1 	(obj:0.2646400182)
C36064                                              1 	(obj:0.0870941711)
C36084                                              1 	(obj:0.2996495083)
C36104                                              1 	(obj:0.3283356804)
C36132                                              1 	(obj:0.3106568495)
C36136                                              1 	(obj:0.929620654)
C36156                                              1 	(obj:0.7638648548)
C36164                                              1 	(obj:0.2613689819)
C36180                                              1 	(obj:0.9050202276)
C36212                                              1 	(obj:0.4822146469)
C36216                                              1 	(obj:0.0151219942)
C36224                                              1 	(obj:0.4693947398)
C36236                                              1 	(obj:0.0840456189)
C36256                                              1 	(obj:0.2747301419)
C36264                                              1 	(obj:0.9609239176)
C36284                                              1 	(obj:0.531664059)
C36304                                              1 	(obj:0.9849912234)
C36320                                              1 	(obj:0.442034054)
C36336                                              1 	(obj:0.3333471098)
C36352                                              1 	(obj:0.2294050708)
C36368                                              1 	(obj:0.2474710823)
C36392                                              1 	(obj:0.7714652216)
C36396                                              1 	(obj:0.5908556971)
C36408                                              1 	(obj:0.8609228857)
C36424                                              1 	(obj:0.4796118798)
C36440                                              1 	(obj:0.8703511693)
C36460                                              1 	(obj:0.90055603)
C36480                                              1 	(obj:0.0740562641)
C36504                                              1 	(obj:0.6682597954)
C36528                                              1 	(obj:0.0747762995)
C36532                                              1 	(obj:0.3531554224)
C36540                                              1 	(obj:0.1273703853)
C36552                                              1 	(obj:0.6325858209)
C36560                                              1 	(obj:0.1241389036)
C36588                                              1 	(obj:0.0879197066)
C36608                                              1 	(obj:0.7359104749)
C36624                                              1 	(obj:0.678310424)
C36640                                              1 	(obj:0.845973883)
C36648                                              1 	(obj:0.9088676954)
C36660                                              1 	(obj:0.7128765573)
C36680                                              1 	(obj:0.8287239009)
C36688                                              1 	(obj:0.2883492697)
C36696                                              1 	(obj:0.4576339578)
C36704                                              1 	(obj:0.5453067981)
C36728                                              1 	(obj:0.3977207441)
C36744                                              1 	(obj:0.4622562077)
C36756                                              1 	(obj:0.4816097212)
C36764                                              1 	(obj:0.517450809)
C36772                                              1 	(obj:0.0386252805)
C36788                                              1 	(obj:0.1483857565)
C36808                                              1 	(obj:0.7718052163)
C36820                                              1 	(obj:0.8653130852)
C36832                                              1 	(obj:0.2072342748)
C36840                                              1 	(obj:0.1121893072)
C36848                                              1 	(obj:0.2338929203)
C36856                                              1 	(obj:0.8788232835)
C36880                                              1 	(obj:0.4432764105)
C36884                                              1 	(obj:0.979270444)
C36912                                              1 	(obj:0.4964354075)
C36920                                              1 	(obj:0.1160977674)
C36932                                              1 	(obj:0.7650920409)
C36956                                              1 	(obj:0.1197260149)
C36964                                              1 	(obj:0.6962856632)
C36980                                              1 	(obj:0.9961848847)
C36996                                              1 	(obj:0.7445151193)
C37016                                              1 	(obj:0.8137629322)
C37032                                              1 	(obj:0.4255767036)
C37048                                              1 	(obj:0.0623285509)
C37068                                              1 	(obj:0.2257275326)
C37076                                              1 	(obj:0.8588834298)
C37092                                              1 	(obj:0.7888018473)
C37108                                              1 	(obj:0.5742926359)
C37128                                              1 	(obj:0.2018518951)
C37136                                              1 	(obj:0.4777565075)
C37152                                              1 	(obj:0.8188204681)
C37160                                              1 	(obj:0.1090056921)
C37188                                              1 	(obj:0.9030826348)
C37202                                              1 	(obj:0)
C37238                                              1 	(obj:0)
C37251                                              1 	(obj:0)
C37292                                              1 	(obj:0)
C37314                                              1 	(obj:0)
C37341                                              1 	(obj:0)
C37368                                              1 	(obj:0)
C37374                                              1 	(obj:0)
C37399                                              1 	(obj:0)
C37422                                              1 	(obj:0)
C37453                                              1 	(obj:0)
C37474                                              1 	(obj:0)
C37508                                              1 	(obj:0)
C37518                                              1 	(obj:0)
C37551                                              1 	(obj:0)
C37579                                              1 	(obj:0)
C37606                                              1 	(obj:0)
C37629                                              1 	(obj:0)
C37633                                              1 	(obj:0)
C37670                                              1 	(obj:0)
C37698                                              1 	(obj:0)
C37717                                              1 	(obj:0)
C37735                                              1 	(obj:0)
C37753                                              1 	(obj:0)
C37782                                              1 	(obj:0)
C37809                                              1 	(obj:0)
C37839                                              1 	(obj:0)
C37861                                              1 	(obj:0)
C37894                                              1 	(obj:0)
C37904                                              1 	(obj:0)
C37932                                              1 	(obj:0)
C37962                                              1 	(obj:0)
C37978                                              1 	(obj:0)
C38016                                              1 	(obj:0)
C38032                                              1 	(obj:0)
C38045                                              1 	(obj:0)
C38073                                              1 	(obj:0)
C38110                                              1 	(obj:0)
C38122                                              1 	(obj:0)
C38144                                              1 	(obj:0)
C38165                                              1 	(obj:0)
C38186                                              1 	(obj:0)
C38227                                              1 	(obj:0)
C38239                                              1 	(obj:0)
C38265                                              1 	(obj:0)
C38300                                              1 	(obj:0)
C38311                                              1 	(obj:0)
C38349                                              1 	(obj:0)
C38375                                              1 	(obj:0)
C38377                                              1 	(obj:0)
C38410                                              1 	(obj:0)
C38430                                              1 	(obj:0)
C38451                                              1 	(obj:0)
C38485                                              1 	(obj:0)
C38497                                              1 	(obj:0)
C38538                                              1 	(obj:0)
C38561                                              1 	(obj:0)
C38572                                              1 	(obj:0)
C38596                                              1 	(obj:0)
C38629                                              1 	(obj:0)
C38645                                              1 	(obj:0)
C38676                                              1 	(obj:0)
C38702                                              1 	(obj:0)
C38728                                              1 	(obj:0)
C38747                                              1 	(obj:0)
C38779                                              1 	(obj:0)
C38791                                              1 	(obj:0)
C38824                                              1 	(obj:0)
C38849                                              1 	(obj:0)
C38864                                              1 	(obj:0)
C38884                                              1 	(obj:0)
C38923                                              1 	(obj:0)
C38930                                              1 	(obj:0)
C38964                                              1 	(obj:0)
C38989                                              1 	(obj:0)
C39012                                              1 	(obj:0)
C39032                                              1 	(obj:0)
C39053                                              1 	(obj:0)
C39092                                              1 	(obj:0)
C39114                                              1 	(obj:0)
C39127                                              1 	(obj:0)
C39168                                              1 	(obj:0)
C39172                                              1 	(obj:0)
C39197                                              1 	(obj:0)
C39237                                              1 	(obj:0)
C39257                                              1 	(obj:0)
C39275                                              1 	(obj:0)
C39294                                              1 	(obj:0)
C39328                                              1 	(obj:0)
C39344                                              1 	(obj:0)
C39365                                              1 	(obj:0)
C39407                                              1 	(obj:0)
C39410                                              1 	(obj:0)
C39447                                              1 	(obj:0)
C39465                                              1 	(obj:0)
C39491                                              1 	(obj:0)
C39507                                              1 	(obj:0)
C39549                                              1 	(obj:0)
C39555                                              1 	(obj:0)
C39590                                              1 	(obj:0)
C39601                                              1 	(obj:0)
C39602                                              1 	(obj:0)
C39603                                              1 	(obj:0)
C39604                                              1 	(obj:0)
C39629                                              1 	(obj:0)
C39630                                              1 	(obj:0)
C39631                                              1 	(obj:0)
C39632                                              1 	(obj:0)
C39665                                              1 	(obj:0)
C39666                                              1 	(obj:0)
C39667                                              1 	(obj:0)
C39668                                              1 	(obj:0)
C39693                                              1 	(obj:0)
C39694                                              1 	(obj:0)
C39695                                              1 	(obj:0)
C39696                                              1 	(obj:0)
C39705                                              1 	(obj:0)
C39706                                              1 	(obj:0)
C39707                                              1 	(obj:0)
C39708                                              1 	(obj:0)
C39733                                              1 	(obj:0)
C39734                                              1 	(obj:0)
C39735                                              1 	(obj:0)
C39736                                              1 	(obj:0)
C39745                                              1 	(obj:0)
C39752                                              1 	(obj:0)
C39761                                              1 	(obj:0)
C39768                                              1 	(obj:0)
C39771                                              1 	(obj:0)
C39778                                              1 	(obj:0)
C39949                                              1 	(obj:0)
C39950                                              1 	(obj:0)
C39951                                              1 	(obj:0)
C39952                                              1 	(obj:0)
C39953                                              1 	(obj:0)
C39954                                              1 	(obj:0)
C39955                                              1 	(obj:0)
C39956                                              1 	(obj:0)
C39957                                              1 	(obj:0)
C39958                                              1 	(obj:0)
C39959                                              1 	(obj:0)
C39960                                              1 	(obj:0)
C39961                                              1 	(obj:0)
C39962                                              1 	(obj:0)
C39963                                              1 	(obj:0)
C39964                                              1 	(obj:0)
C39965                                              1 	(obj:0)
C39966                                              1 	(obj:0)
C39967                                              1 	(obj:0)
C39968                                              1 	(obj:0)
C39969                                              1 	(obj:0)
C39970                                              1 	(obj:0)
C39971                                              1 	(obj:0)
C39972                                              1 	(obj:0)
C39991                                              1 	(obj:0)
C39992                                              1 	(obj:0)
C39993                                              1 	(obj:0)
C39994                                              1 	(obj:0)
C39995                                              1 	(obj:0)
C39996                                              1 	(obj:0)
C40015                                              1 	(obj:0)
C40016                                              1 	(obj:0)
C40017                                              1 	(obj:0)
C40018                                              1 	(obj:0)
C40019                                              1 	(obj:0)
C40020                                              1 	(obj:0)
C40039                                              1 	(obj:0)
C40040                                              1 	(obj:0)
C40041                                              1 	(obj:0)
C40042                                              1 	(obj:0)
C40044                                              1 	(obj:0)
C40063                                              1 	(obj:0)
C40064                                              1 	(obj:0)
C40065                                              1 	(obj:0)
C40066                                              1 	(obj:0)
C40087                                              1 	(obj:0)
C40088                                              1 	(obj:0)
C40089                                              1 	(obj:0)
C40090                                              1 	(obj:0)
C40091                                              1 	(obj:0)
C40092                                              1 	(obj:0)
C40112                                              1 	(obj:0)
C40113                                              1 	(obj:0)
C40114                                              1 	(obj:0)
C40115                                              1 	(obj:0)
C40116                                              1 	(obj:0)
C40135                                              1 	(obj:0)
C40136                                              1 	(obj:0)
C40137                                              1 	(obj:0)
C40139                                              1 	(obj:0)
C40140                                              1 	(obj:0)
C40159                                              1 	(obj:0)
C40160                                              1 	(obj:0)
C40162                                              1 	(obj:0)
C40163                                              1 	(obj:0)
C40164                                              1 	(obj:0)
C40238                                              1 	(obj:0)
C40241                                              1 	(obj:0)
C40242                                              1 	(obj:0)
C40243                                              1 	(obj:0)
C40244                                              1 	(obj:0)
C40247                                              1 	(obj:0)
C40248                                              1 	(obj:0)
C40249                                              1 	(obj:0)
C40251                                              1 	(obj:0)
C40254                                              1 	(obj:0)
C40256                                              1 	(obj:0)
C40257                                              1 	(obj:0)
C40334                                              1 	(obj:0)
C40335                                              1 	(obj:0)
C40336                                              1 	(obj:0)
C40337                                              1 	(obj:0)
C40338                                              1 	(obj:0)
C40341                                              1 	(obj:0)
C40344                                              1 	(obj:0)
C40346                                              1 	(obj:0)
C40347                                              1 	(obj:0)
C40350                                              1 	(obj:0)
C40352                                              1 	(obj:0)
C40355                                              1 	(obj:0)
C40429                                              1 	(obj:0)
C40430                                              1 	(obj:0)
C40436                                              1 	(obj:0)
C40439                                              1 	(obj:0)
C40441                                              1 	(obj:0)
C40442                                              1 	(obj:0)
C40443                                              1 	(obj:0)
C40444                                              1 	(obj:0)
C40449                                              1 	(obj:0)
C40450                                              1 	(obj:0)
C40451                                              1 	(obj:0)
C40452                                              1 	(obj:0)
C40526                                              1 	(obj:0)
C40529                                              1 	(obj:0)
C40531                                              1 	(obj:0)
C40534                                              1 	(obj:0)
C40536                                              1 	(obj:0)
C40537                                              1 	(obj:0)
C40621                                              1 	(obj:0)
C40623                                              1 	(obj:0)
C40626                                              1 	(obj:0)
C40627                                              1 	(obj:0)
C40628                                              1 	(obj:0)
C40629                                              1 	(obj:0)
C40630                                              1 	(obj:0)
C40631                                              1 	(obj:0)
C40632                                              1 	(obj:0)
C40633                                              1 	(obj:0)
C40634                                              1 	(obj:0)
C40636                                              1 	(obj:0)
C40638                                              1 	(obj:0)
C40640                                              1 	(obj:0)
C40641                                              1 	(obj:0)
C40642                                              1 	(obj:0)
C40721                                              1 	(obj:0)
C40724                                              1 	(obj:0)
C40725                                              1 	(obj:0)
C40732                                              1 	(obj:0)
C40735                                              1 	(obj:0)
C40737                                              1 	(obj:0)
C40815                                              1 	(obj:0)
C40816                                              1 	(obj:0)
C40817                                              1 	(obj:0)
C40818                                              1 	(obj:0)
C40821                                              1 	(obj:0)
C40822                                              1 	(obj:0)
C40829                                              1 	(obj:0)
C40830                                              1 	(obj:0)
C40833                                              1 	(obj:0)
C40836                                              1 	(obj:0)
C40909                                              1 	(obj:0)
C40915                                              1 	(obj:0)
C40924                                              1 	(obj:0)
C40925                                              1 	(obj:0)
C40927                                              1 	(obj:0)
C40928                                              1 	(obj:0)
C40930                                              1 	(obj:0)
C5659                                               1 	(obj:0)
C5854                                               1 	(obj:0)
C5949                                               1 	(obj:0)
C6409                                               1 	(obj:0)
C6710                                               1 	(obj:0)
C7098                                               1 	(obj:0)
C7477                                               1 	(obj:0)
C7951                                               1 	(obj:0)
C8041                                               1 	(obj:0)
C8430                                               1 	(obj:0)
C8913                                               1 	(obj:0)
C9399                                               1 	(obj:0)
C10069                                              1 	(obj:0)
C10174                                              1 	(obj:0)
C10640                                              1 	(obj:0)
C10836                                              1 	(obj:0)
C11226                                              1 	(obj:0)
C11986                                              1 	(obj:0)
C12096                                              1 	(obj:0)
C12280                                              1 	(obj:0)
C12557                                              1 	(obj:0)
C13041                                              1 	(obj:0)
C13246                                              1 	(obj:0)
C13714                                              1 	(obj:0)
C14192                                              1 	(obj:0)
C14573                                              1 	(obj:0)
C14954                                              1 	(obj:0)
C15355                                              1 	(obj:0)
C15727                                              1 	(obj:0)
C16305                                              1 	(obj:0)
C16412                                              1 	(obj:0)
C16687                                              1 	(obj:0)
C17085                                              1 	(obj:0)
C17471                                              1 	(obj:0)
C17929                                              1 	(obj:0)
C18418                                              1 	(obj:0)
C18990                                              1 	(obj:0)
C19563                                              1 	(obj:0)
C19669                                              1 	(obj:0)
C19849                                              1 	(obj:0)
C20154                                              1 	(obj:0)
C20345                                              1 	(obj:0)
C21004                                              1 	(obj:0)
C21484                                              1 	(obj:0)
C21877                                              1 	(obj:0)
C22253                                              1 	(obj:0)
C22452                                              1 	(obj:0)
C22742                                              1 	(obj:0)
C23224                                              1 	(obj:0)
C23411                                              1 	(obj:0)
C23611                                              1 	(obj:0)
C23791                                              1 	(obj:0)
C24376                                              1 	(obj:0)
C24761                                              1 	(obj:0)
C25040                                              1 	(obj:0)
C25228                                              1 	(obj:0)
C25435                                              1 	(obj:0)
C25802                                              1 	(obj:0)
C26292                                              1 	(obj:0)
C26581                                              1 	(obj:0)
C26868                                              1 	(obj:0)
C27056                                              1 	(obj:0)
C27245                                              1 	(obj:0)
C27452                                              1 	(obj:0)
C28026                                              1 	(obj:0)
C28111                                              1 	(obj:0)
C28800                                              1 	(obj:0)
C28972                                              1 	(obj:0)
C29261                                              1 	(obj:0)
C29853                                              1 	(obj:0)
C30041                                              1 	(obj:0)
C30419                                              1 	(obj:0)
C30798                                              1 	(obj:0)
C31288                                              1 	(obj:0)
C31664                                              1 	(obj:0)
C32045                                              1 	(obj:0)
C32543                                              1 	(obj:0)
C32714                                              1 	(obj:0)
C33111                                              1 	(obj:0)
C33489                                              1 	(obj:0)
C33971                                              1 	(obj:0)
C34155                                              1 	(obj:0)
C34557                                              1 	(obj:0)
C34731                                              1 	(obj:0)
C35414                                              1 	(obj:0)
C0554                                               1 	(obj:0)
C0854                                               1 	(obj:0)
C1035                                               1 	(obj:0)
C1340                                               1 	(obj:0)
C1914                                               1 	(obj:0)
C2109                                               1 	(obj:0)
C2400                                               1 	(obj:0)
C2670                                               1 	(obj:0)
C3247                                               1 	(obj:0)
C3342                                               1 	(obj:0)
C3829                                               1 	(obj:0)
C4018                                               1 	(obj:0)
C4508                                               1 	(obj:0)
C4878                                               1 	(obj:0)
C5175                                               1 	(obj:0)
